\ LP format - for model browsing. Use MPS format to capture full model detail.
Minimize
  1000 gshed_da(ng101,k0,t1) + 1000 gshed_da(ng101,k1,t1)
   + 1000 gshed_da(ng101,k2,t1) + 1000 gshed_da(ng102,k0,t1)
   + 1000 gshed_da(ng102,k1,t1) + 1000 gshed_da(ng102,k2,t1)
   + 2 gprod(gw1,k0,t1) + 3 gprod(gw2,k0,t1) + 4 gprod(gw3,k0,t1)
Subject To
 gshed_da_max(ng101,k0,t1): gshed_da(ng101,k0,t1) <= 0
 gshed_da_max(ng101,k1,t1): gshed_da(ng101,k1,t1) <= 0
 gshed_da_max(ng101,k2,t1): gshed_da(ng101,k2,t1) <= 0
 gshed_da_max(ng102,k0,t1): gshed_da(ng102,k0,t1) <= 0
 gshed_da_max(ng102,k1,t1): gshed_da(ng102,k1,t1) <= 0
 gshed_da_max(ng102,k2,t1): gshed_da(ng102,k2,t1) <= 0
 gas_balance_da(ng101,k0,t1): gshed_da(ng101,k0,t1)
   - qin_sr(('ng101','ng102'),k0,t1) + gprod(gw1,k0,t1) + gprod(gw2,k0,t1)
   + gprod(gw3,k0,t1) = 0
 gas_balance_da(ng101,k1,t1): gshed_da(ng101,k1,t1)
   - qin_sr(('ng101','ng102'),k1,t1) + gprod(gw1,k1,t1) + gprod(gw2,k1,t1)
   + gprod(gw3,k1,t1) = 0
 gas_balance_da(ng101,k2,t1): gshed_da(ng101,k2,t1)
   - qin_sr(('ng101','ng102'),k2,t1) + gprod(gw1,k2,t1) + gprod(gw2,k2,t1)
   + gprod(gw3,k2,t1) = 0
 gas_balance_da(ng102,k0,t1): gshed_da(ng102,k0,t1)
   + qout_sr(('ng101','ng102'),k0,t1) = 400
 gas_balance_da(ng102,k1,t1): gshed_da(ng102,k1,t1)
   + qout_sr(('ng101','ng102'),k1,t1) = 400
 gas_balance_da(ng102,k2,t1): gshed_da(ng102,k2,t1)
   + qout_sr(('ng101','ng102'),k2,t1) = 400
 gprod_max(gw1,k0,t1): gprod(gw1,k0,t1) <= 240
 gprod_max(gw1,k1,t1): gprod(gw1,k1,t1) <= 240
 gprod_max(gw1,k2,t1): gprod(gw1,k2,t1) <= 240
 gprod_max(gw2,k0,t1): gprod(gw2,k0,t1) <= 144
 gprod_max(gw2,k1,t1): gprod(gw2,k1,t1) <= 144
 gprod_max(gw2,k2,t1): gprod(gw2,k2,t1) <= 144
 gprod_max(gw3,k0,t1): gprod(gw3,k0,t1) <= 3000
 gprod_max(gw3,k1,t1): gprod(gw3,k1,t1) <= 3000
 gprod_max(gw3,k2,t1): gprod(gw3,k2,t1) <= 3000
 gflow_sr_io(('ng101','ng102'),k0,t1): gflow_sr(('ng101','ng102'),k0,t1)
   - 0.5 qin_sr(('ng101','ng102'),k0,t1)
   - 0.5 qout_sr(('ng101','ng102'),k0,t1) = 0
 gflow_sr_limit(('ng101','ng102'),k0,t1): gflow_sr(('ng101','ng102'),k0,t1)
   <= 10000
 Flow_Bal(('ng101','ng102'),k0,t1): qin_sr(('ng101','ng102'),k0,t1)
   - qout_sr(('ng101','ng102'),k0,t1) = 0
 gflow_sr_io(('ng101','ng102'),k1,t1): gflow_sr(('ng101','ng102'),k1,t1)
   - 0.5 qin_sr(('ng101','ng102'),k1,t1)
   - 0.5 qout_sr(('ng101','ng102'),k1,t1) = 0
 gflow_sr_limit(('ng101','ng102'),k1,t1): gflow_sr(('ng101','ng102'),k1,t1)
   <= 10000
 Flow_Bal(('ng101','ng102'),k1,t1): qin_sr(('ng101','ng102'),k1,t1)
   - qout_sr(('ng101','ng102'),k1,t1) = 0
 gflow_sr_io(('ng101','ng102'),k2,t1): gflow_sr(('ng101','ng102'),k2,t1)
   - 0.5 qin_sr(('ng101','ng102'),k2,t1)
   - 0.5 qout_sr(('ng101','ng102'),k2,t1) = 0
 gflow_sr_limit(('ng101','ng102'),k2,t1): gflow_sr(('ng101','ng102'),k2,t1)
   <= 10000
 Flow_Bal(('ng101','ng102'),k2,t1): qin_sr(('ng101','ng102'),k2,t1)
   - qout_sr(('ng101','ng102'),k2,t1) = 0
Bounds
End
